NAME : swiss42-R-5-2-b.1639.tour
COMMENT : Length = 1639
COMMENT : Found by LKH-3 [Keld Helsgaun] Tue Jul 30 13:14:22 2024
TYPE : TOUR
DIMENSION : 42
TOUR_SECTION
1
2
7
15
16
18
36
21
34
35
29
28
3
4
5
26
42
24
10
40
22
41
25
23
39
31
30
9
11
12
13
19
27
6
14
20
17
38
37
32
8
33
-1
EOF
